r = [
0,45,49,35,80,66,9,29,43,34,40,0
];
p = [
0,11,28,15,11,28,17,25,2,24,4,0
];
e = [
0,12,20,3,16,3,20,17,14,9,18,0
];
d = [
0,79,77,190,192,94,27,162,169,170,128,204
];
d_bar = [
0,89,102,204,202,119,42,185,171,192,132,204
];
w = [
0,1.2,0.8,0.214285714,1.6,0.12,1.333333333,0.739130435,7,0.409090909,4.5,0
];
